certificates/rado_a12_c148_N31.drat
-27 -31 0
13 -31 0
-11 -31 0
d -14 -11 -31 0
-31 0
-13 0
5 0
21 0
23 0
-11 0
27 0
29 0
15 0
14 0
3 0
19 0
-12 0
-7 0
-9 0
-25 0
-1 0
0
